swarm_exploration/utils/lkh_mtsp_solver/resource/amtsp3_3.atsp
NAME : pairopt
TYPE : ACVRP
DIMENSION : 5
EDGE_WEIGHT_TYPE : EXPLICIT
EDGE_WEIGHT_FORMAT : FULL_MATRIX
CAPACITY : 240
VEHICLES : 2
EDGE_WEIGHT_SECTION
100000 -100000 -100000 100000 100000 
100000 100000 1000000 448 708 
100000 1000000 100000 3998 4792 
0 0 0 100000 1160 
0 0 0 1160 100000 
DEMAND_SECTION
1 0
2 0
3 0
4 272
5 48
DEPOT_SECTION
1
EOF