swarm_exploration/utils/lkh_mtsp_solver/resource/amtsp3_3.tour
NAME : pairopt.-195959.tour
COMMENT : Length = -195959
COMMENT : Found by LKH-3 [Keld Helsgaun] Thu Apr 13 10:23:49 2023
TYPE : TOUR
DIMENSION : 6
TOUR_SECTION
1
2
5
6
3
4
-1
EOF
